c Problem generated from recursive[n-bit] multiplication circuit
c by Paul Purdom and Amr Sabry
c
c Circuit for product = 7 [True,True,True]
c Variables for output [msb,...,lsb]: [11,12,10,5]
c Variables for first input [msb,...,lsb]: [2,1]
c Variables for second input [msb,...,lsb]: [4,3]
c
c
p cnf 12 36
1 3 -5 0
1 -3 -5 0
-1 3 -5 0
-1 -3 5 0
2 3 -6 0
2 -3 -6 0
-2 3 -6 0
-2 -3 6 0
1 4 -7 0
1 -4 -7 0
-1 4 -7 0
-1 -4 7 0
2 4 -8 0
2 -4 -8 0
-2 4 -8 0
-2 -4 8 0
6 7 -9 0
6 -7 -9 0
-6 7 -9 0
-6 -7 9 0
6 7 -10 0
6 -7 10 0
-6 7 10 0
-6 -7 -10 0
9 8 -11 0
9 -8 -11 0
-9 8 -11 0
-9 -8 11 0
9 8 -12 0
9 -8 12 0
-9 8 12 0
-9 -8 -12 0
5 0
10 0
12 0
-11 0
